(set-option :produce-models true); benchmark generated from python API
(set-info :status unknown)
(declare-fun l_1_0_9 () Real)
(declare-fun l_1_0_8 () Real)
(declare-fun l_1_0_7 () Real)
(declare-fun l_1_0_6 () Real)
(declare-fun l_1_0_5 () Real)
(declare-fun l_1_0_4 () Real)
(declare-fun l_1_0_3 () Real)
(declare-fun l_1_0_2 () Real)
(declare-fun l_1_0_1 () Real)
(declare-fun _a_0_ () Real)
(declare-fun l_1_0_10 () Real)
(declare-fun _a_1_ () Real)
(declare-fun l_1_0_11 () Real)
(declare-fun l_1_1_9 () Real)
(declare-fun l_1_1_7 () Real)
(declare-fun l_1_1_5 () Real)
(declare-fun l_1_1_16 () Real)
(declare-fun l_1_1_15 () Real)
(declare-fun l_1_1_12 () Real)
(declare-fun l_1_1_11 () Real)
(declare-fun l_1_1_10 () Real)
(declare-fun l_1_1_4 () Real)
(declare-fun l_1_1_3 () Real)
(declare-fun l_1_1_1 () Real)
(declare-fun l_1_1_6 () Real)
(declare-fun l_1_1_17 () Real)
(declare-fun l_1_1_8 () Real)
(declare-fun l_1_1_2 () Real)
(declare-fun l_1_1_14 () Real)
(declare-fun l_1_1_13 () Real)
(declare-fun l_1_2_1 () Real)
(declare-fun l_1_2_2 () Real)
(declare-fun l_1_2_3 () Real)
(declare-fun l_1_2_4 () Real)
(declare-fun l_1_2_5 () Real)
(declare-fun l_1_2_6 () Real)
(declare-fun l_1_2_7 () Real)
(declare-fun l_1_2_8 () Real)
(declare-fun l_1_2_9 () Real)
(declare-fun l_1_2_10 () Real)
(declare-fun l_1_2_11 () Real)
(declare-fun l_1_2_12 () Real)
(declare-fun l_1_2_13 () Real)
(declare-fun l_1_2_14 () Real)
(declare-fun l_1_2_15 () Real)
(declare-fun l_1_2_17 () Real)
(assert
 (let ((?x334 (* l_1_0_9 l_1_0_9)))
 (let ((?x24 (* 3.0 l_1_0_5)))
 (let ((?x25 (* 9.0 l_1_0_4)))
 (let ((?x27 (- (- (- _a_0_ (* 3.0 l_1_0_1)) (* 3.0 l_1_0_2)) l_1_0_3)))
 (let ((?x19 (- (- (- (- (- (- ?x27 ?x25) ?x24) l_1_0_6) l_1_0_7) l_1_0_8) ?x334)))
 (= ?x19 0.0)))))))
(assert
 (let ((?x232 (* 2.0 l_1_0_5)))
 (let ((?x230 (* 12.0 l_1_0_4)))
 (let ((?x227 (* 2.0 l_1_0_2)))
 (let ((?x20 (- (- _a_1_ (* 2.0 l_1_0_1)) (* (* 2.0 l_1_0_10) l_1_0_9))))
 (= (- (- (- ?x20 ?x227) ?x230) ?x232) 0.0))))))
(assert
 (let ((?x143 (* 2.0 l_1_0_4)))
 (let ((?x142 (+ (- (- l_1_0_1 (* l_1_0_10 l_1_0_10)) (* l_1_0_11 l_1_0_11)) l_1_0_2)))
 (= (- (+ (+ ?x142 ?x143) l_1_0_5) 1.0) 0.0))))
(assert
 (= (* 4.0 l_1_0_4) 0.0))
(assert
 (= (- l_1_0_4) 0.0))
(assert
 (>= l_1_0_1 0.0))
(assert
 (>= l_1_0_2 0.0))
(assert
 (>= l_1_0_3 0.0))
(assert
 (>= l_1_0_4 0.0))
(assert
 (>= l_1_0_5 0.0))
(assert
 (>= l_1_0_6 0.0))
(assert
 (>= l_1_0_7 0.0))
(assert
 (>= l_1_0_8 0.0))
(assert
 (>= l_1_0_9 0.0))
(assert
 (>= l_1_0_11 0.0))
(assert
 (let ((?x139 (* (/ 3.0 2.0) l_1_1_5)))
 (let ((?x132 (* 21.0 l_1_1_11)))
 (let ((?x275 (* (/ 3.0 2.0) l_1_1_10)))
 (let ((?x38 (* _a_1_ l_1_1_4)))
 (let ((?x35 (* _a_1_ l_1_1_3)))
 (let ((?x33 (* _a_1_ l_1_1_1)))
 (let ((?x309 (- (- (- (* (* (* (- 2.0) _a_0_) _a_1_) l_1_1_6) ?x33) ?x35) ?x38)))
 (let ((?x246 (- (- (+ ?x309 ?x275) ?x132) (* l_1_1_12 (- (* (- (/ 3.0 2.0)) _a_0_) (* 7.0 _a_1_))))))
 (let ((?x254 (- (+ (- ?x246 (* (* 2.0 l_1_1_15) l_1_1_16)) ?x139) (* l_1_1_7 (- (* (- (/ 3.0 2.0)) _a_0_) (* 7.0 _a_1_))))))
 (= (+ (+ ?x254 (* (/ 3.0 2.0) l_1_1_9)) 8.0) 0.0)))))))))))
(assert
 (let ((?x41 (* l_1_1_17 l_1_1_17)))
 (let ((?x47 (* l_1_1_16 l_1_1_16)))
 (let ((?x49 (- (+ (- l_1_1_1 l_1_1_10) (* (/ 47.0 4.0) l_1_1_11)) (* l_1_1_12 (+ (- _a_0_ (* (/ 3.0 2.0) _a_1_)) 7.0)))))
 (let ((?x46 (- (- (+ (+ (- (- ?x49 ?x47) ?x41) l_1_1_3) l_1_1_4) l_1_1_5) (* l_1_1_6 (+ (* (- 2.0) _a_0_) (* _a_1_ _a_1_))))))
 (let ((?x43 (- (- ?x46 (* l_1_1_7 (+ (- _a_0_ (* (/ 3.0 2.0) _a_1_)) 7.0))) l_1_1_9)))
 (= (- ?x43 1.0) 0.0)))))))
(assert
 (let ((?x446 (* 7.0 l_1_1_9)))
 (let ((?x441 (* 7.0 l_1_1_5)))
 (let ((?x438 (* l_1_1_15 l_1_1_15)))
 (let ((?x434 (* 49.0 l_1_1_11)))
 (let ((?x431 (* 7.0 l_1_1_10)))
 (let ((?x427 (* _a_0_ l_1_1_4)))
 (let ((?x425 (* _a_0_ l_1_1_3)))
 (let ((?x426 (- (+ (* (- _a_0_) l_1_1_1) (* (* 7.0 _a_0_) l_1_1_12)) ?x425)))
 (let ((?x435 (- (+ (+ (- ?x426 ?x427) (* (* 7.0 _a_0_) l_1_1_7)) ?x431) ?x434)))
 (let ((?x444 (- (+ (- (- (- (- ?x435 l_1_1_13) l_1_1_14) ?x438) l_1_1_2) ?x441) (* (* l_1_1_6 _a_0_) _a_0_))))
 (= (- (+ (- ?x444 l_1_1_8) ?x446) 15.0) 0.0))))))))))))
(assert
 (let ((?x506 (- (+ (* (* 2.0 _a_1_) l_1_1_6) (* 3.0 l_1_1_11)) (* l_1_1_12 (+ _a_1_ (/ 3.0 2.0))))))
 (= (- ?x506 (* l_1_1_7 (+ _a_1_ (/ 3.0 2.0)))) 0.0)))
(assert
 (= (+ (- (+ (- l_1_1_11) l_1_1_12) l_1_1_6) l_1_1_7) 0.0))
(assert
 (>= l_1_1_1 0.0))
(assert
 (>= l_1_1_2 0.0))
(assert
 (>= l_1_1_3 0.0))
(assert
 (>= l_1_1_4 0.0))
(assert
 (>= l_1_1_5 0.0))
(assert
 (>= l_1_1_6 0.0))
(assert
 (>= l_1_1_7 0.0))
(assert
 (>= l_1_1_8 0.0))
(assert
 (>= l_1_1_9 0.0))
(assert
 (>= l_1_1_10 0.0))
(assert
 (>= l_1_1_11 0.0))
(assert
 (>= l_1_1_12 0.0))
(assert
 (>= l_1_1_13 0.0))
(assert
 (>= l_1_1_14 0.0))
(assert
 (>= l_1_1_15 0.0))
(assert
 (>= l_1_1_17 0.0))
(assert
 false)
(assert
 (>= l_1_2_1 0.0))
(assert
 (>= l_1_2_2 0.0))
(assert
 (>= l_1_2_3 0.0))
(assert
 (>= l_1_2_4 0.0))
(assert
 (>= l_1_2_5 0.0))
(assert
 (>= l_1_2_6 0.0))
(assert
 (>= l_1_2_7 0.0))
(assert
 (>= l_1_2_8 0.0))
(assert
 (>= l_1_2_9 0.0))
(assert
 (>= l_1_2_10 0.0))
(assert
 (>= l_1_2_11 0.0))
(assert
 (>= l_1_2_12 0.0))
(assert
 (>= l_1_2_13 0.0))
(assert
 (>= l_1_2_14 0.0))
(assert
 (>= l_1_2_15 0.0))
(assert
 (>= l_1_2_17 0.0))
(check-sat)
(get-model)